(declare-const X String)
; Download\d+ocllceclbhs\x2fgth
(assert (not (str.in_re X (re.++ (str.to_re "Download") (re.+ (re.range "0" "9")) (str.to_re "ocllceclbhs/gth\u{a}")))))
; \b(25[0-5]|2[0-4][0-9]|[01]?[0-9][0-9]?).(25[0-5]|2[0-4][0-9]|[01]?[0-9][0-9]?).(25[0-5]|2[0-4][0-9]|[01]?[0-9][0-9]?).(25[0-5]|2[0-4][0-9]|[01]?[0-9][0-9]?)\b
(assert (not (str.in_re X (re.++ (re.union (re.++ (str.to_re "25") (re.range "0" "5")) (re.++ (str.to_re "2") (re.range "0" "4") (re.range "0" "9")) (re.++ (re.opt (re.union (str.to_re "0") (str.to_re "1"))) (re.range "0" "9") (re.opt (re.range "0" "9")))) re.allchar (re.union (re.++ (str.to_re "25") (re.range "0" "5")) (re.++ (str.to_re "2") (re.range "0" "4") (re.range "0" "9")) (re.++ (re.opt (re.union (str.to_re "0") (str.to_re "1"))) (re.range "0" "9") (re.opt (re.range "0" "9")))) re.allchar (re.union (re.++ (str.to_re "25") (re.range "0" "5")) (re.++ (str.to_re "2") (re.range "0" "4") (re.range "0" "9")) (re.++ (re.opt (re.union (str.to_re "0") (str.to_re "1"))) (re.range "0" "9") (re.opt (re.range "0" "9")))) re.allchar (re.union (re.++ (str.to_re "25") (re.range "0" "5")) (re.++ (str.to_re "2") (re.range "0" "4") (re.range "0" "9")) (re.++ (re.opt (re.union (str.to_re "0") (str.to_re "1"))) (re.range "0" "9") (re.opt (re.range "0" "9")))) (str.to_re "\u{a}")))))
; comUser-Agent\x3Asi=PORT\x3D\x2Fpagead\x2Fads\?Host\x3a\x2Fdesktop\x2F
(assert (not (str.in_re X (str.to_re "comUser-Agent:si=PORT=/pagead/ads?Host:/desktop/\u{a}"))))
(check-sat)
